# INITIALIZATION
atom_style	atomic
units		metal
dimension	3
boundary	p p p
processors	1 * *
# --------------System Definition---------------------------------------
neighbor	2 bin
neigh_modify	delay 10
#neighbor	2.0 nsq
#neigh_modify	delay 0 every 1 check yes
#read_restart	restart.final.8600088
variable	SL string bulk
variable	fileId string Si_${SL}
read_data	position_${fileId}

#variable	filename string SiGe_${SL}
#variable	restartfile string SiGe.quenched.restart
#atom_modify	sort 0 0.0
pair_style	tersoff
pair_coeff	* * ../../potentials/SiCGe.tersoff Si(D)
#--------------- Simulation control parameters ----------------------------------------------------------
variable 	T equal 300.0
variable 	dt equal 0.00016
variable 	Tdamp equal 100*${dt}
variable 	Pdamp equal 1000*${dt}
variable        NRUNNVT equal 200000
variable        NRUNNVE equal 400000
timestep 	${dt}
thermo 		1000
# -------------- NVT Thermalization ------------------------------
#restart	500000 restart
velocity	all create $T ${SEED} mom yes rot yes dist gaussian
fix		NVT all nvt temp $T $T ${Tdamp}
run		${NRUNNVT}
unfix		NVT
write_restart	restart.NVT.${fileId}*
# -------------- NVE Equilibration ----------------
fix		NVE all nve
run		${NRUNNVE}
reset_timestep	0
write_restart	restart.NVE.${fileId}
dump		posSi all custom 3 ${fileId}.pos.dat id type x y z
dump_modify	posSi format "%d %d %.8g %.8g %.8g"
dump_modify	posSi sort id
run		100000 #315000 #Why this number?
undump		posSi
print		"all done"
