atom_style	atomic
units		metal
dimension	3
boundary	p p p
processors 	* * *
# ---------------------------------------------------------
#lattice	diamond 5.43
#region		box block 0 4 0 4 0 4
#create_box	1 box
#create_atoms	1 box 							#To let LAMMPS prepare the lattice itself
#read_restart	../equilibration/restart.500000 			#File to restart from a previous run
read_data	../equilibration/data.bulk.Si.512.atoms.relaxed		#data file with positions
#replicate	8 8 8
mass		1 28.0855			#Silicon mass 
pair_style	tersoff				#potential 
pair_coeff	* * ../SiCGe.tersoff Si(D)
thermo		1000
#--------------- Simulation control parameters ---------------------------------------------------------                   
variable        T equal 300			# Kelvin
variable        V equal vol             	# A^3 
variable        dt equal 0.001		        # 1fs; in picoseconds = 1e-12 s, good for testing purposes                      
variable        NRUN equal 30000000                            
variable        thermocalc equal 10000                        
variable        snapprint equal 100000                        
variable	thermoflux equal 5
variable        nstep equal step                              
variable        tstep equal v_nstep*v_dt 
variable        Lx equal xhi-xlo                              
variable        Ly equal yhi-ylo                              
variable        Lz equal zhi-zlo                              
print           "Lx = ${Lx} A"                                
print           "Ly = ${Ly} A"                                
print           "Lz = ${Lz} A"
print		"Simulation box = $V A^(3)"
variable        Volume equal v_Lx*v_Ly*v_Ly
print           "Cell Volume = ${Volume} A^(3)"
timestep        ${dt}                                         
thermo          ${thermocalc}                                 
thermo_style	custom step temp pe etotal press pxx pyy pzz lx ly lz 
# -------------- Print structure -----------------------
dump		snapxyz all custom ${snapprint} sisnap.lammpstrj id type x y z
# -------------- NVT Equilibration and Thermalization ----------------               
#reset_timestep	0						#Only if restarting from a previous run
velocity	all create $T ${SEED} mom yes rot yes dist gaussian                  
fix		NVT all nvt temp $T $T 0.1
run		100000
unfix		NVT
# -------------- NVE Equilibration ----------------                
fix		NVE all nve
run		100000
# -------------- flux calculation ---------------
reset_timestep	0
restart		5000000 restart 
compute		myKE all ke/atom
compute		myPE all pe/atom
compute		myStress all stress/atom virial
compute		flux all heat/flux myKE myPE myStress
thermo		${thermoflux}
variable	jx equal c_flux[1]
variable	jy equal c_flux[2]
variable	jz equal c_flux[3]
thermo_style	custom step c_flux[1] c_flux[2] c_flux[3] temp etotal epair
#fix             fluxout all print ${thermoflux} "${tstep} ${jx} ${jy} ${jz} " file HEATFLUX_new
run       	${NRUN}

